c WARNING: for repeatability, setting FPU to use double precision
d VARIABLES            139760       
d CONSTRAINTS          508852       
c ============================[ Problem Statistics ]=============================
c |                                                                             |
c |  Number of variables:        139760                                         |
c |  Number of clauses:          508852                                         |
c |  Parse time:                   0.09 s                                       |
c |                                                                             |
c ============================[ Search Statistics ]==============================
c | Conflicts |          ORIGINAL         |          LEARNT          | Progress |
c |           |    Vars  Clauses Literals |    Limit  Clauses Lit/Cl |          |
c ===============================================================================
c |       100 |  110197   432426  1087279 |   158556      100     96 | 21.153 % |
c |       250 |  110197   432426  1087279 |   174411      250     63 | 21.153 % |
c |       475 |  110197   432426  1087279 |   191853      475     44 | 21.153 % |
c |       812 |  110197   432426  1087279 |   211038      812     27 | 21.153 % |
c |      1318 |  110197   432426  1087279 |   232142     1318     35 | 21.153 % |
c |      2077 |  110197   432426  1087279 |   255356     2077     27 | 21.153 % |
c |      3216 |  110197   432426  1087279 |   280891     3216     33 | 21.153 % |
c |      4924 |  110197   432426  1087279 |   308981     4924     31 | 21.153 % |
c |      7486 |  110074   431432  1084825 |   339879     7367     29 | 21.241 % |
c ===============================================================================
c restarts              : 38
c conflicts             : 9006           (3071 /sec)
c decisions             : 144883         (0.00 % random) (49411 /sec)
c propagations          : 20755967       (7078674 /sec)
c conflict literals     : 262394         (20.28 % deleted)
d RESTARTS             38
d FAILURES             9006         
d NODES                144883       
d BACKTRACKS           144883       
d PROPAGATIONS         20755967     
d NOGOODSIZE           29.14 
d MEMORY               44.00 
d TIME                 2.93218 

s UNSATISFIABLE
